32 14
7 500
6 711
1 46
10 520
2 870
13 301
10 312
13 452
11 514
12 244
5 477
7 147
12 893
5 309
2 355
2 923
1 823
4 343
3 349
12 192
10 641
2 749
11 621
3 424
10 898
4 59
9 773
8 505
2 772
3 811
6 126
12 186
